NAME: bb17.tsp
COMMENT: 
TYPE: TSP	
DIMENSION: 17
EDGE_WEIGHT_TYPE: EUC_2D
NODE_COORD_SECTION
1 25 26
2 47 34
3 26 48
4 32 40
5 40 50
6 50 50
7 50 11
8 35 20
9 35 0
10 25 22
11 17 6
12 14 26
13 13 43
14 0 30 
15 5 7
16 27 3
17 2 9
EOF

